NAME : local_5
TYPE : ATSP
DIMENSION : 9
EDGE_WEIGHT_TYPE : EXPLICIT
EDGE_WEIGHT_FORMAT : FULL_MATRIX
EDGE_WEIGHT_SECTION
0 668 795 819 809 10000000 806 481 10000000 
0 0 205 817 680 797 939 745 10000000 
0 205 0 970 849 726 10000000 915 10000000 
0 817 970 0 220 10000000 229 373 555 
0 680 849 220 0 10000000 441 428 735 
0 797 726 10000000 10000000 0 10000000 10000000 10000000 
0 939 10000000 229 441 10000000 0 371 420 
0 745 915 373 428 10000000 371 0 735 
0 10000000 10000000 10000000 10000000 10000000 10000000 10000000 0 
EOF